
  12    4
  10   10   10   10

   0   0   0   0   0   3 2 3 11 
   4  10  10  10  10   5 10 7 6 5 4 
  10  10  10  10  10   2 10 8 
   7  10  10  10  10   1 9 
   8  10  10  10  10   1 9 
   7  10  10  10  10   1 8 
   7  10  10  10  10   1 8 
   7  10  10  10  10   1 12
   7  10  10  10  10   1 12
   8  10  10  10  10   1 12
   8  10  10  10  10   1 12
   0   0   0   0   0   0 
